   0  83  93 129 133 139 151
  83   0  40  53  62  64  91
  93  40   0  42  42  49  59
 129  53  42   0  11  11  46
 133  62  42  11   0   9  35
 139  64  49  11   9   0  39
 151  91  59  46  35  39   0
